c This Formular is generated by mcnf
c
c atributes
c X_PI <= 42.09_1_p:1
c X_PI <= 48.12_1_p:2
c X_GS <= 37.89_1_p:3
c X_PI <= 42.09_2_s:4
c X_PI <= 48.12_2_p:5
c C_1_1:6
c C_2_1:7
c C_2_1:8

p cnf 8  3
-1 5 -2 0
-3 -4 2 0
-6 -8 -7 0
